p cnf 101 355
3 2 0
3 -1 0
-2 1 -3 0
4 1 0
4 -3 0
-1 3 -4 0
-5 -6 -7 0
5 6 -7 0
-5 6 7 0
5 -6 7 0
8 -4 0
8 7 0
4 -7 -8 0
10 -6 0
10 9 0
6 -9 -10 0
-10 -11 -12 0
10 11 -12 0
-10 11 12 0
10 -11 12 0
14 -6 -15 0
-14 6 -15 0
14 6 15 0
-14 -6 15 0
13 -15 -16 0
-13 15 -16 0
13 15 16 0
-13 -15 16 0
-17 11 0
-17 -13 0
-11 13 17 0
18 -16 0
18 17 0
16 -17 -18 0
-12 18 -19 0
12 -18 -19 0
-12 -18 19 0
12 18 19 0
21 20 0
21 5 0
-20 -5 -21 0
22 -11 0
22 21 0
11 -21 -22 0
-19 22 -23 0
19 -22 -23 0
-19 -22 23 0
19 22 23 0
-24 -8 0
-24 23 0
8 -23 24 0
26 -6 0
26 25 0
6 -25 -26 0
11 -26 -27 0
-11 26 -27 0
11 26 27 0
-11 -26 27 0
28 -11 0
28 -27 0
11 27 -28 0
29 -5 0
29 1 0
5 -1 -29 0
30 10 0
30 -29 0
-10 29 -30 0
31 -21 0
31 30 0
21 -30 -31 0
-32 31 0
-32 -31 0
33 28 0
33 32 0
-28 -32 -33 0
-34 -24 0
-34 -33 0
24 33 34 0
-11 -26 -35 0
11 26 -35 0
-11 26 35 0
11 -26 35 0
35 9 -36 0
-35 -9 -36 0
35 -9 36 0
-35 9 36 0
39 29 0
39 38 0
-29 -38 -39 0
-40 -39 0
-40 -11 0
39 11 40 0
40 3 -41 0
-40 -3 -41 0
40 -3 41 0
-40 3 41 0
37 -41 -42 0
-37 41 -42 0
37 41 42 0
-37 -41 42 0
-36 -42 -43 0
36 42 -43 0
-36 42 43 0
36 -42 43 0
16 -37 -44 0
-16 37 -44 0
16 37 44 0
-16 -37 44 0
45 6 0
45 -44 0
-6 44 -45 0
-46 11 0
-46 45 0
-11 -45 46 0
43 46 -47 0
-43 -46 -47 0
43 -46 47 0
-43 46 47 0
48 2 0
48 -10 0
-2 10 -48 0
-49 -12 0
-49 48 0
12 -48 49 0
-50 48 0
-50 38 0
-48 -38 50 0
-49 -50 -51 0
49 50 -51 0
-49 50 51 0
49 -50 51 0
52 12 0
52 37 0
-12 -37 -52 0
-38 -48 -53 0
38 48 -53 0
-38 48 53 0
38 -48 53 0
54 -6 0
54 -53 0
6 53 -54 0
-55 2 0
-55 17 0
-2 -17 55 0
54 55 -56 0
-54 -55 -56 0
54 -55 56 0
-54 55 56 0
-52 -56 -57 0
52 56 -57 0
-52 56 57 0
52 -56 57 0
-58 -51 0
-58 -57 0
51 57 58 0
59 -47 0
59 58 0
47 -58 -59 0
60 15 0
60 -18 0
-15 18 -60 0
61 59 0
61 60 0
-59 -60 -61 0
-34 61 -62 0
34 -61 -62 0
-34 -61 62 0
34 61 62 0
63 -15 0
63 -11 0
15 11 -63 0
-64 13 0
-64 -63 0
-13 63 64 0
65 -13 0
65 35 0
13 -35 -65 0
-35 17 -66 0
35 -17 -66 0
-35 -17 66 0
35 17 66 0
65 -66 -67 0
-65 66 -67 0
65 66 67 0
-65 -66 67 0
-39 37 -68 0
39 -37 -68 0
-39 -37 68 0
39 37 68 0
-3 -68 -69 0
3 68 -69 0
-3 68 69 0
3 -68 69 0
70 39 0
70 69 0
-39 -69 -70 0
-67 70 -71 0
67 -70 -71 0
-67 -70 71 0
67 70 71 0
-5 -11 -72 0
5 11 -72 0
-5 11 72 0
5 -11 72 0
48 5 -73 0
-48 -5 -73 0
48 -5 73 0
-48 5 73 0
-69 -73 -74 0
69 73 -74 0
-69 73 74 0
69 -73 74 0
75 -72 0
75 -74 0
72 74 -75 0
-30 37 -76 0
30 -37 -76 0
-30 -37 76 0
30 37 76 0
-77 44 0
-77 -26 0
-44 26 77 0
-78 -77 0
-78 18 0
77 -18 78 0
-79 -76 0
-79 -78 0
76 78 79 0
-80 75 0
-80 -79 0
-75 79 80 0
-71 -80 -81 0
71 80 -81 0
-71 80 81 0
71 -80 81 0
64 81 -82 0
-64 -81 -82 0
64 -81 82 0
-64 81 82 0
83 31 0
83 17 0
-31 -17 -83 0
85 -84 0
85 -14 0
84 14 -85 0
-86 26 0
-86 -12 0
-26 12 86 0
87 -85 0
87 -86 0
85 86 -87 0
-39 21 -88 0
39 -21 -88 0
-39 -21 88 0
39 21 88 0
89 87 0
89 -88 0
-87 88 -89 0
90 83 0
90 -89 0
-83 89 -90 0
12 -1 -91 0
-12 1 -91 0
12 1 91 0
-12 -1 91 0
-92 29 0
-92 91 0
-29 -91 92 0
-93 14 0
-93 -92 0
-14 92 93 0
95 29 0
95 -63 0
-29 63 -95 0
31 -95 -96 0
-31 95 -96 0
31 95 96 0
-31 -95 96 0
-94 -96 -97 0
94 96 -97 0
-94 96 97 0
94 -96 97 0
-98 93 0
-98 -97 0
-93 97 98 0
-99 -90 0
-99 98 0
90 -98 99 0
-100 82 0
-100 99 0
-82 -99 100 0
62 -100 -101 0
-62 100 -101 0
62 100 101 0
-62 -100 101 0
11 78 1 61 0
20 46 -68 72 0
62 17 -88 85 84 -90 0
-101 65 0
60 10 -72 58 -27 -84 0
-17 24 25 19 0
51 65 -60 0
59 67 -85 0
13 -44 88 -47 0
-56 86 0
-85 -40 15 61 -52 0
-72 -70 -62 41 0
30 17 -4 -84 -52 0
-11 45 -66 38 0
64 94 -90 0
-50 -18 85 -33 -30 0
15 -28 -31 83 0
-41 46 36 -15 -9 0
1 -72 62 -99 -96 0
48 -14 26 2 -96 0
-78 -98 55 -97 0
89 87 70 17 0
-5 26 -32 0
41 -34 12 22 45 0
-87 95 91 72 0
68 52 -99 -83 -54 0
-77 -84 37 0
63 -49 51 -58 0
-13 -29 12 -41 0
53 18 45 -59 0
-23 20 11 0
-4 -54 -27 -7 0
25 13 0
-59 64 0
88 -47 0
-1 -86 83 -24 -18 88 0
40 56 -65 -83 5 -3 0
51 -58 -40 -64 0
67 74 0
-71 72 -3 78 0
-48 -32 -31 0
84 -40 -77 -52 94 8 0
54 -39 -50 75 0
37 -12 -75 0
67 73 89 0
-33 -36 0
84 -82 -98 0
-38 12 0
-36 -67 -15 0
-51 54 94 0
-85 72 69 79 -12 0
17 60 42 49 72 0
74 91 70 19 101 0
23 -60 2 -66 -36 -47 0
61 48 36 0
-20 -3 0
-19 22 74 -73 0
71 -66 -79 34 0
70 89 0
101 0
